Problem:    
Rows:       107
Columns:    30
Non-zeros:  296
Status:     OPTIMAL
Objective:  obj = 3.25 (MAXimum)

   No.   Row name   St   Activity     Lower bound   Upper bound    Marginal
------ ------------ -- ------------- ------------- ------------- -------------
     1 r.4          NU             0                           0          0.25 
     2 r.5          B              0                           0 
     3 r.6          B              0                           0 
     4 r.7          B              0                           0 
     5 r.8          NU             0                           0         < eps
     6 r.9          B              0                           0 
     7 r.10         B              0                           0 
     8 r.11         B              0                           0 
     9 r.12         NS             0             0             =          0.25 
    10 r.13         NU             0                           0         < eps
    11 r.14         NU             0                           0         < eps
    12 r.15         B              0                           0 
    13 r.16         B              0                           0 
    14 r.17         B              0                           0 
    15 r.18         NU             0                           0          0.75 
    16 r.19         B              0                           0 
    17 r.20         B              0                           0 
    18 r.21         B              0                           0 
    19 r.22         NU             0                           0         < eps
    20 r.23         NU             0                           0          0.75 
    21 r.24         B              0                           0 
    22 r.25         B              0                           0 
    23 r.26         B              0                           0 
    24 r.27         B              0                           0 
    25 r.28         B             -2                           0 
    26 r.29         B             -2                           0 
    27 r.30         B             -2                           0 
    28 r.31         B             -2                           0 
    29 r.32         B             -1                           0 
    30 r.33         B             -1                           0 
    31 r.34         B              0                           0 
    32 r.35         B              0                           0 
    33 r.36         B              0                           0 
    34 r.37         B              0                           0 
    35 r.38         B             -2                           0 
    36 r.39         B             -2                           0 
    37 r.40         B             -2                           0 
    38 r.41         B             -2                           0 
    39 r.42         NU             0                           0          0.25 
    40 r.43         NU             0                           0         < eps
    41 r.44         B              0                           0 
    42 r.45         B              0                           0 
    43 r.46         B              0                           0 
    44 r.47         B              0                           0 
    45 r.48         B             -2                           0 
    46 r.49         B             -2                           0 
    47 r.50         B             -2                           0 
    48 r.51         B             -2                           0 
    49 r.52         NU             0                           0          0.25 
    50 r.53         NU             0                           0          0.75 
    51 r.54         NU             0                           0          0.25 
    52 r.55         B              0                           0 
    53 r.56         B              0                           0 
    54 r.57         B              0                           0 
    55 r.58         NU             0                           0         < eps
    56 r.59         B              0                           0 
    57 r.60         B              0                           0 
    58 r.61         B              0                           0 
    59 r.62         B              0                           0 
    60 r.63         NS             0             0             =          0.75 
    61 r.64         B              0                           0 
    62 r.65         B              0                           0 
    63 r.66         B              0                           0 
    64 r.67         B              0                           0 
    65 r.68         B             -2                           0 
    66 r.69         B             -2                           0 
    67 r.70         B             -2                           0 
    68 r.71         B             -2                           0 
    69 r.72         NU             0                           0         < eps
    70 r.73         B              0                           0 
    71 r.74         B              0                           0 
    72 r.75         B              0                           0 
    73 r.76         NU             0                           0          0.75 
    74 r.77         B              0                           0 
    75 r.78         B              0                           0 
    76 r.79         B              0                           0 
    77 r.80         NU             0                           0          0.25 
    78 r.81         B              0                           0 
    79 r.82         B              0                           0 
    80 r.83         B              0                           0 
    81 r.84         NU             0                           0         < eps
    82 r.85         B              0                           0 
    83 r.86         B              0                           0 
    84 r.87         B              0                           0 
    85 r.88         B              0                           0 
    86 r.89         B             -2                           0 
    87 r.90         NS             1             1             =           1.5 
    88 r.91         B              1             1             = 
    89 r.92         B              1             1             = 
    90 r.93         B              1             1             = 
    91 r.94         B              1             1             = 
    92 r.95         B              1             1             = 
    93 r.96         B              1             1             = 
    94 r.97         B              1             1             = 
    95 r.98         B              1             1             = 
    96 r.99         B              1             1             = 
    97 r.100        B              1             1             = 
    98 r.101        B              1             1             = 
    99 r.102        B              1             1             = 
   100 r.103        B              1             1             = 
   101 r.104        B              1             1             = 
   102 r.105        B              1             1             = 
   103 r.106        NS             1             1             =          0.75 
   104 r.107        NS             1             1             =         < eps
   105 r.108        NS             1             1             =         < eps
   106 r.109        NS             1             1             =          0.25 
   107 r.110        NS             1             1             =          0.75 

   No. Column name  St   Activity     Lower bound   Upper bound    Marginal
------ ------------ -- ------------- ------------- ------------- -------------
     1 V(0,1)       B              1                             
     2 V(0,2)       B              4                             
     3 V(5,1)       B              1                             
     4 F(S0,1)      NL             0             0                       -0.75 
     5 F(S0,2)      B              1             0               
     6 V(4,1)       B              1                             
     7 V(5,2)       B              2                             
     8 V(4,2)       B              1                             
     9 V(1,1)       B              0                             
    10 V(1,2)       B              0                             
    11 F(1,1)       B              1             0               
    12 F(1,2)       B              0             0               
    13 V(3,2)       B              0                             
    14 V(6,1)       B              1                             
    15 V(7,1)       B              1                             
    16 V(6,2)       B              3                             
    17 V(7,2)       B              2                             
    18 V(8,1)       B              1                             
    19 F(8,1)       NL             0             0                       -0.75 
    20 F(8,2)       B              1             0               
    21 V(2,1)       B              1                             
    22 V(8,2)       B              1                             
    23 V(2,2)       B              0                             
    24 V(3,1)       B              1                             
    25 F(3,1)       B              1             0               
    26 F(3,2)       NL             0             0                       -0.25 
    27 F(0,1)       NL             0             0                        -0.5 
    28 F(0,2)       B              1             0               
    29 F(2,1)       NL             0             0                       < eps
    30 F(2,2)       B              1             0               

Karush-Kuhn-Tucker optimality conditions:

KKT.PE: max.abs.err = 0.00e+00 on row 0
        max.rel.err = 0.00e+00 on row 0
        High quality

KKT.PB: max.abs.err = 0.00e+00 on row 0
        max.rel.err = 0.00e+00 on row 0
        High quality

KKT.DE: max.abs.err = 0.00e+00 on column 0
        max.rel.err = 0.00e+00 on column 0
        High quality

KKT.DB: max.abs.err = 0.00e+00 on row 0
        max.rel.err = 0.00e+00 on row 0
        High quality

End of output
